*SPEF "IEEE 1481-1998"
*DESIGN "pqc_top_wrapper"
*DATE "Fri Jul 17 11:05:15 2026"
*VENDOR "Cadence Design Systems, Inc."
*PROGRAM "Innovus"
*VERSION "21.14-s109_1"
*DESIGN_FLOW "COUPLING C" "PIN_CAP NONE" "NAME_SCOPE LOCAL"
*DIVIDER /
*DELIMITER :
*BUS_DELIMITER []
*T_UNIT 1 NS
*C_UNIT 1 PF
*R_UNIT 1 OHM
*L_UNIT 1 HENRY

// MMMC spef file for corner 'rc_worst'

*NAME_MAP

*1 uut/FE_PHN11_rst_n_pad
*2 uut/FE_PHN10_n_9
*3 uut/FE_PHN9_n_8
*4 uut/FE_PHN8_n_4
*5 uut/FE_PHN7_rst_n_pad
*6 uut/FE_PHN6_sw_pad_0
*7 uut/FE_PHN5_sw_pad_1
*8 uut/FE_PHN4_sw_pad_3
*9 uut/FE_PHN3_sw_pad_2
*10 uut/FE_PHN2_n_2
*11 uut/FE_PHN1_uut_state_2
*12 uut/FE_PHN0_n_1
*13 clk
*14 rst_n
*15 start
*16 sw[3]
*17 sw[2]
*18 sw[1]
*19 sw[0]
*20 led[3]
*21 led[2]
*22 led[1]
*23 led[0]
*24 done_led
*25 sw_pad[3]
*26 sw_pad[2]
*27 sw_pad[1]
*28 sw_pad[0]
*29 led_pad[3]
*30 led_pad[2]
*31 led_pad[1]
*32 led_pad[0]
*33 clk_buf
*34 clk_pad
*35 done_led_pad
*36 rst_n_pad
*37 start_pad
*38 uut/uut_state[2]
*39 uut/uut_state[1]
*40 uut/uut_state[0]
*41 uut/n_0
*42 uut/n_1
*43 uut/n_2
*44 uut/n_3
*45 uut/n_4
*46 uut/n_5
*47 uut/n_6
*48 uut/n_7
*49 uut/n_8
*50 uut/n_9
*51 uut/FE_PHC11_rst_n_pad
*52 uut/FE_PHC10_n_9
*53 uut/FE_PHC9_n_8
*54 uut/FE_PHC8_n_4
*55 uut/FE_PHC7_rst_n_pad
*56 uut/FE_PHC6_sw_pad_0
*57 uut/FE_PHC5_sw_pad_1
*58 uut/FE_PHC4_sw_pad_3
*59 uut/FE_PHC3_sw_pad_2
*60 uut/FE_PHC2_n_2
*61 uut/FE_PHC1_uut_state_2
*62 uut/FE_PHC0_n_1
*63 uut/uut_valid_out_reg
*64 uut/uut_M_OUT_REAL_reg\[3\]
*65 uut/uut_M_OUT_REAL_reg\[0\]
*66 uut/uut_M_OUT_REAL_reg\[1\]
*67 uut/g266__2398
*68 uut/uut_M_OUT_REAL_reg\[2\]
*69 uut/g269__5107
*70 uut/g270__6260
*71 uut/uut_state_reg\[2\]
*72 uut/g273__4319
*73 uut/g274__8428
*74 uut/g275__5526
*75 uut/g276__6783
*76 uut/g279
*77 uut/uut_state_reg\[1\]
*78 uut/uut_state_reg\[0\]
*79 pc3c01_clk_buf
*80 pc3d01_clk
*81 pc3d01_rst_n
*82 pc3d01_start
*83 pc3d01_sw0
*84 pc3d01_sw1
*85 pc3d01_sw2
*86 pc3d01_sw3
*87 pvdi_VDD_0
*88 pv0i_VSS_0
*89 pvda_VDDO_0
*90 pv0a_VSSO_0
*91 pc3o01_dummy1
*92 pc3o01_dummy2
*93 pc3o01_dummy3
*94 pvdi_VDD_1
*95 pv0i_VSS_1
*96 pvda_VDDO_1
*97 pv0a_VSSO_1
*98 pc3o01_done_led
*99 pvdi_VDD_2
*100 pv0i_VSS_2
*101 pvda_VDDO_2
*102 pv0a_VSSO_2
*103 pvdi_VDD_3
*104 pv0i_VSS_3
*105 pvda_VDDO_3
*106 pv0a_VSSO_3
*107 pc3o01_led0
*108 pc3o01_led1
*109 pc3o01_led2
*110 pc3o01_led3


*PORTS

*13 I *C 249.79 342.42
*14 I *C 447.45 249.79
*15 I *C 329.16 249.79
*16 I *C 1170.44 1249.81
*17 I *C 1052.15 1249.81
*18 I *C 460.71 1249.81
*19 I *C 342.42 1249.81
*20 O *C 1249.81 685.47
*21 O *C 1249.81 567.18
*22 O *C 1249.81 448.89
*23 O *C 1249.81 330.6
*24 O *C 1040.33 249.79


*D_NET *1 7.538e-05

*CONN
*I *51:Z O *C 992.28 453.84 *L 0 *D buffd1
*I *76:I I *C 992.84 452.72 *L 0.00464 *D inv0d1

*CAP
1 *51:Z 3.769e-05
2 *76:I 3.769e-05

*RES
1 *51:Z *76:I 0.194783
*END

*D_NET *2 0.00195022

*CONN
*I *52:Z O *C 1032.04 465.04 *L 0 *D dl03d1
*I *63:D I *C 1027 469.52 *L 0.00251 *D dfcrq1

*CAP
1 *52:Z 4.09862e-05
2 *63:D 7.09492e-05
3 *2:2 0.000421470078
4 *2:3 0.000421470078
5 *2:4 0.000366573
6 *2:5 8.88409e-05
7 *2:6 8.668e-05
8 *2:7 8.668e-05
9 *2:8 0.000366573

*RES
1 *52:Z *2:5 0.194824
2 *2:6 *2:5 6
3 *2:6 *2:7 0.160034
4 *2:8 *2:7 6
5 *2:2 *63:D 6
6 *2:4 *2:8 1.59998
7 *2:3 *2:2 1.11996
8 *2:3 *2:4 6
*END

*D_NET *3 0.00126733

*CONN
*I *53:Z O *C 1023.64 453.84 *L 0 *D dl03d1
*I *77:D I *C 1015.8 452.72 *L 0.00251 *D dfcrb1

*CAP
1 *53:Z 7.09521e-05
2 *77:D 7.09521e-05
3 *3:3 5.95313e-05
4 *3:4 0.00047491
5 *3:5 5.95313e-05
6 *3:6 5.65385e-05
7 *3:7 0.00047491

*RES
1 *3:5 *77:D 6
2 *3:3 *3:5 0.160034
3 *3:4 *3:3 6
4 *3:4 *3:7 2.24002
5 *3:6 *3:7 6
6 *3:6 *53:Z 6
7 *3:2 *3:6 0.15802
*END

*D_NET *4 0.00146429

*CONN
*I *54:Z O *C 996.2 465.04 *L 0 *D dl03d1
*I *78:D I *C 991.16 469.52 *L 0.00251 *D dfcrb1

*CAP
1 *54:Z 7.09483e-05
2 *78:D 7.09483e-05
3 *4:2 6.62561e-05
4 *4:3 6.62561e-05
5 *4:4 0.000264293
6 *4:5 0.00033065
7 *4:6 0.000264293
8 *4:7 0.00033065

*RES
1 *4:3 *54:Z 6
2 *4:3 *4:2 0.160034
3 *4:7 *4:2 6
4 *4:6 *78:D 6
5 *4:5 *4:7 1.44003
6 *4:4 *4:6 1.11996
7 *4:4 *4:5 6
*END

*D_NET *5 0.00154376

*CONN
*I *51:I I *C 990.6 453.28 *L 0.0025 *D buffd1
*I *55:Z O *C 999.56 453.84 *L 0 *D dl03d1

*CAP
1 *51:I 7.09448e-05
2 *55:Z 7.09448e-05
3 *5:3 5.95307e-05
4 *5:4 5.95307e-05
5 *5:5 0.00061313
6 *5:6 5.65369e-05
7 *5:7 0.00061313

*RES
1 *5:3 *51:I 6
2 *5:3 *5:4 0.160034
3 *5:5 *5:4 6
4 *5:5 *5:7 2.56
5 *5:6 *5:7 6
6 *5:6 *55:Z 6
7 *5:2 *5:6 0.15802
*END

*D_NET *6 0.00142702

*CONN
*I *56:Z O *C 1024.2 502 *L 0 *D dl03d1
*I *65:D I *C 1019.16 508.72 *L 0.0021 *D decrq1

*CAP
1 *56:Z 7.09484e-05
2 *65:D 7.09484e-05
3 *6:2 0.000259823
4 *6:3 0.000355198
5 *6:4 0.00046725
6 *6:5 5.95265e-05
7 *6:6 0.000143323

*RES
1 *6:5 *56:Z 6
2 *6:5 *6:6 0.160034
3 *6:3 *6:6 0.480011
4 *6:3 *6:4 1.11996
5 *6:2 *6:4 0.960022
6 *65:D *6:2 6
*END

*D_NET *7 0.0015281

*CONN
*I *57:Z O *C 1022.52 487.44 *L 0 *D dl03d1
*I *66:D I *C 1017.48 491.92 *L 0.0021 *D decrq1

*CAP
1 *57:Z 7.09482e-05
2 *66:D 7.09482e-05
3 *7:2 0.000136579
4 *7:3 0.000136579
5 *7:4 0.00032327
6 *7:5 0.000233252
7 *7:6 0.000233252
8 *7:7 0.00032327

*RES
1 *7:5 *57:Z 6
2 *7:5 *7:6 0.960022
3 *7:7 *7:6 6
4 *7:2 *66:D 6
5 *7:4 *7:7 1.44003
6 *7:3 *7:2 0.319977
7 *7:3 *7:4 6
*END

*D_NET *8 0.00161436

*CONN
*I *58:Z O *C 1028.6801 524.4 *L 0 *D dl03d1
*I *64:D I *C 1023.64 531.12 *L 0.0021 *D decrq1

*CAP
1 *58:Z 7.09474e-05
2 *64:D 7.09474e-05
3 *8:2 0.00025982
4 *8:3 0.000257468
5 *8:4 0.000145419
6 *8:5 0.000362979
7 *8:6 0.00044677

*RES
1 *8:5 *58:Z 6
2 *8:5 *8:6 1.44003
3 *8:4 *8:6 0.480011
4 *8:3 *8:4 0.160034
5 *8:2 *8:3 0.960022
6 *64:D *8:2 6
*END

*D_NET *9 0.0015303

*CONN
*I *59:Z O *C 1028.6801 513.2 *L 0 *D dl03d1
*I *68:D I *C 1023.64 519.92 *L 0.0021 *D decrq1

*CAP
1 *59:Z 7.09509e-05
2 *68:D 7.09509e-05
3 *9:2 7.30574e-05
4 *9:3 7.30574e-05
5 *9:4 0.000286069
6 *9:5 0.00033507
7 *9:6 0.00033507
8 *9:7 0.000286069

*RES
1 *9:5 *59:Z 6
2 *9:5 *9:6 1.28
3 *9:7 *9:6 6
4 *9:4 *9:7 1.28
5 *9:3 *9:4 6
6 *9:2 *9:3 0.160034
7 *68:D *9:2 6
*END

*D_NET *10 0.0063769

*CONN
*I *60:Z O *C 1011.32 457.2 *L 0 *D dl03d1
*I *74:A2 I *C 1017.48 476.24 *L 0.00464 *D nd03d1
*I *72:A1 I *C 1006.28 475.12 *L 0.00429 *D nr03d1

*CAP
1 *60:Z 0.000355378
2 *74:A2 7.09521e-05
3 *72:A1 7.09521e-05
4 *10:3 0.000793489531
5 *10:4 0.000702547
6 *10:5 0.000114952
7 *10:6 6.85185e-05
8 *10:7 0.000152257
9 *10:8 0.000126249
10 *10:9 0.000733217
11 *10:10 0.000126249
12 *10:11 0.000394983
13 *10:12 0.000733217
14 *10:7 *12:7 9.156e-05
15 *10:3 *12:8 9.156e-05
16 *10:3 *12:7 0.00026661
17 *10:4 *12:8 0.00026661
18 *10:3 *12:8 0.00042062
19 *10:4 *12:9 0.00042062
20 *10:5 *12:8 1.42e-05
21 *10:6 *12:9 1.41999939e-05
22 *10:3 *44:8 0.00015007
23 *10:4 *44:7 0.00015007
24 *10:5 *44:4 2.39e-05
25 *10:6 *44:3 2.38999962e-05

*RES
1 *60:Z *10:11 1.75305
2 *10:6 *10:11 6
3 *10:6 *10:5 0.319977
4 *10:5 *10:4 0.319977
5 *10:7 *74:A2 6
6 *10:4 *10:3 3.67996
7 *10:3 *10:7 0.799988
8 *10:12 *10:3 6
9 *10:10 *72:A1 6
10 *10:9 *10:12 3.20004
11 *10:8 *10:10 0.480011
12 *10:8 *10:9 6
*END

*D_NET *11 0.00784499

*CONN
*I *61:Z O *C 1017.48 479.6 *L 0 *D dl03d1
*I *74:A3 I *C 1016.36 475.68 *L 0.00455 *D nd03d1
*I *69:A I *C 1014.12 468.4 *L 0.0048 *D oan211d1
*I *73:B I *C 994.52 458.88 *L 0.00493 *D aoim211d1
*I *72:A2 I *C 1006.84 474.56 *L 0.00472 *D nr03d1

*CAP
1 *61:Z 7.0939e-05
2 *74:A3 7.0939e-05
3 *69:A 0.000190276
4 *73:B 7.0939e-05
5 *72:A2 0.00118748
6 *11:5 0.000105312
7 *11:6 0.000105312
8 *11:7 0.000574651
9 *11:8 0.000331338
10 *11:9 0.00032226
11 *11:10 0.000229868
12 *11:11 0.000101688
13 *11:12 0.000148129
14 *11:13 0.000294519
15 *11:14 0.000334908
16 *11:15 0.000242298
17 *11:16 0.000242298
18 *11:17 0.000796654
19 *11:18 0.000796654
20 *11:19 0.000176777
21 *11:20 0.000692049
22 *11:21 0.00025451
23 *11:15 *40:8 6.154e-05
24 *11:16 *40:7 6.154e-05
25 *11:15 *40:6 2.059e-05
26 *11:16 *40:5 2.059e-05
27 *11:17 *40:11 0.00017047
28 *11:18 *40:9 0.000170470007

*RES
1 *69:A *11:10 0.973938
2 *11:11 *61:Z 6
3 *11:9 *11:10 6
4 *11:12 *11:11 0.319977
5 *11:9 *11:8 0.799988
6 *11:13 *11:12 0.319977
7 *11:19 *11:8 0.160034
8 *11:14 *74:A3 6
9 *11:14 *11:13 0.960022
10 *11:19 *11:21 0.640045
11 *11:21 *11:14 0.319977
12 *11:20 *11:21 6
13 *72:A2 *11:20 3.31128
14 *11:7 *72:A2 2.72699
15 *11:17 *11:7 6
16 *11:18 *11:17 4.00003
17 *11:15 *11:18 6
18 *11:16 *11:15 1.28
19 *11:5 *11:16 6
20 *11:6 *11:5 0.160034
21 *73:B *11:6 6
*END

*D_NET *12 0.00752902

*CONN
*I *62:Z O *C 1010.76 468.4 *L 0 *D dl03d1
*I *74:A1 I *C 1018.04 475.12 *L 0.00475 *D nd03d1
*I *72:A3 I *C 1007.96 475.12 *L 0.0051 *D nr03d1
*I *69:C1 I *C 1011.32 469.52 *L 0.00443 *D oan211d1
*I *75:A1 I *C 1015.8 458.32 *L 0.00428 *D nd02d1

*CAP
1 *62:Z 0.000108641
2 *74:A1 7.0951e-05
3 *72:A3 0.000199469
4 *69:C1 3.76896e-05
5 *75:A1 7.0951e-05
6 *12:5 0.00014019
7 *12:6 0.000261332
8 *12:7 0.000300655
9 *12:8 0.0007237
10 *12:9 0.000559061
11 *12:10 0.000239069
12 *12:12 0.000424845
13 *12:13 0.000467492
14 *12:14 0.000424845
15 *12:15 0.000467492
16 *12:7 *49:4 0.00012151
17 *12:8 *49:2 0.00012151
18 *12:8 *49:4 0.00060181
19 *12:9 *49:2 0.000601810008
20 *12:7 *10:7 9.156e-05
21 *12:8 *10:3 9.156e-05
22 *12:7 *10:3 0.00026661
23 *12:8 *10:4 0.00026661
24 *12:8 *10:3 0.00042062
25 *12:9 *10:4 0.00042062
26 *12:8 *10:5 1.42e-05
27 *12:9 *10:6 1.41999939e-05

*RES
1 *12:5 *75:A1 6
2 *12:6 *12:5 0.319977
3 *12:6 *12:9 0.640045
4 *12:7 *74:A1 6
5 *12:9 *12:8 3.20004
6 *12:8 *12:7 1.92004
7 *12:15 *12:8 6
8 *72:A3 *12:10 0.973938
9 *62:Z *69:C1 0.194824
10 *12:13 *12:15 2.07999
11 *12:14 *12:10 6
12 *12:12 *12:13 6
13 *12:12 *12:14 1.92004
14 *12:12 *62:Z 6
15 *12:11 *12:12 0.0400085
*END

*D_NET *13 5e-07

*CONN
*P *13 I *C 249.79 342.42 *L 0
*I *80:PAD I *C 249.79 342.42 *L 3.54 *D pc3d01

*CAP
1 *13 2.5e-07
2 *80:PAD 2.5e-07

*RES
1 *80:PAD *13 0.000571429
*END

*D_NET *14 5e-07

*CONN
*P *14 I *C 447.45 249.79 *L 0
*I *81:PAD I *C 447.45 249.79 *L 3.54 *D pc3d01

*CAP
1 *14 2.5e-07
2 *81:PAD 2.5e-07

*RES
1 *81:PAD *14 0.000571429
*END

*D_NET *15 5e-07

*CONN
*P *15 I *C 329.16 249.79 *L 0
*I *82:PAD I *C 329.16 249.79 *L 3.54 *D pc3d01

*CAP
1 *15 2.5e-07
2 *82:PAD 2.5e-07

*RES
1 *82:PAD *15 0.000571429
*END

*D_NET *16 5e-07

*CONN
*P *16 I *C 1170.4399 1249.8101 *L 0
*I *86:PAD I *C 1170.4399 1249.8101 *L 3.54 *D pc3d01

*CAP
1 *16 2.5e-07
2 *86:PAD 2.5e-07

*RES
1 *86:PAD *16 0.000571429
*END

*D_NET *17 5e-07

*CONN
*P *17 I *C 1052.15 1249.8101 *L 0
*I *85:PAD I *C 1052.15 1249.8101 *L 3.54 *D pc3d01

*CAP
1 *17 2.5e-07
2 *85:PAD 2.5e-07

*RES
1 *85:PAD *17 0.000571429
*END

*D_NET *18 5e-07

*CONN
*P *18 I *C 460.71 1249.8101 *L 0
*I *84:PAD I *C 460.71 1249.8101 *L 3.54 *D pc3d01

*CAP
1 *18 2.5e-07
2 *84:PAD 2.5e-07

*RES
1 *84:PAD *18 0.000571429
*END

*D_NET *19 5e-07

*CONN
*P *19 I *C 342.42 1249.8101 *L 0
*I *83:PAD I *C 342.42 1249.8101 *L 3.54 *D pc3d01

*CAP
1 *19 2.5e-07
2 *83:PAD 2.5e-07

*RES
1 *83:PAD *19 0.000571429
*END

*D_NET *20 5e-07

*CONN
*P *20 O *C 1249.8101 685.47 *L 0
*I *110:PAD O *C 1249.8101 685.47 *L 0 *D pc3o01

*CAP
1 *20 2.5e-07
2 *110:PAD 2.5e-07

*RES
1 *110:PAD *20 0.000571429
*END

*D_NET *21 5e-07

*CONN
*P *21 O *C 1249.8101 567.18 *L 0
*I *109:PAD O *C 1249.8101 567.18 *L 0 *D pc3o01

*CAP
1 *21 2.5e-07
2 *109:PAD 2.5e-07

*RES
1 *109:PAD *21 0.000571429
*END

*D_NET *22 5e-07

*CONN
*P *22 O *C 1249.8101 448.89 *L 0
*I *108:PAD O *C 1249.8101 448.89 *L 0 *D pc3o01

*CAP
1 *22 2.5e-07
2 *108:PAD 2.5e-07

*RES
1 *108:PAD *22 0.000571429
*END

*D_NET *23 5e-07

*CONN
*P *23 O *C 1249.8101 330.6 *L 0
*I *107:PAD O *C 1249.8101 330.6 *L 0 *D pc3o01

*CAP
1 *23 2.5e-07
2 *107:PAD 2.5e-07

*RES
1 *107:PAD *23 0.000571429
*END

*D_NET *24 5e-07

*CONN
*P *24 O *C 1040.33 249.79 *L 0
*I *98:PAD O *C 1040.33 249.79 *L 0 *D pc3o01

*CAP
1 *24 2.5e-07
2 *98:PAD 2.5e-07

*RES
1 *98:PAD *24 0.000571429
*END

*D_NET *25 0.111117

*CONN
*I *58:I I *C 1023.64 525.52 *L 0.00435 *D dl03d1
*I *86:CIN O *C 1167.075 1249.8101 *L 0 *D pc3d01

*CAP
1 *58:I 0.000161396
2 *86:CIN 5.13418e-05
3 *25:2 0.000738356
4 *25:3 0.000738356
5 *25:4 0.000298901
6 *25:5 0.000298901
7 *25:6 0.00410963
8 *25:7 0.0115069
9 *25:8 0.0157487
10 *25:9 0.01665686
11 *25:10 0.00837126
12 *25:11 0.000201046
13 *25:12 6.27793e-05
14 *25:13 6.27793e-05
15 *25:14 6.27793e-05
16 *25:15 6.27793e-05
17 *25:16 6.55752e-05
18 *25:17 0.00160964
19 *25:18 0.00705035
20 *25:19 0.00550628
21 *25:20 0.00124974
22 *25:21 0.00126372
23 *25:2 *26:17 8.898e-05
24 *25:3 *26:15 8.898e-05
25 *25:2 *26:6 7.49e-05
26 *25:3 *26:5 7.49e-05
27 *25:2 *26:2 3.645e-05
28 *25:3 *26:3 3.645e-05
29 *25:6 *26:13 0.00097013
30 *25:7 *26:11 0.00097013
31 *25:6 *26:11 0.00010977
32 *25:7 *26:10 0.00010977
33 *25:7 *26:11 0.00250373
34 *25:8 *26:10 0.00250373
35 *25:7 *26:10 0.00010977
36 *25:8 *26:9 0.00010977
37 *25:8 *26:10 0.00231353
38 *25:9 *26:9 0.00231353
39 *25:8 *26:9 9.978e-05
40 *25:9 *26:8 9.978e-05
41 *25:9 *26:17 0.00010417
42 *25:10 *26:15 0.00010417
43 *25:9 *26:9 0.00230498
44 *25:10 *26:8 0.00230498005
45 *25:4 *28:2 4.428e-05
46 *25:5 *28:3 4.428e-05
47 *25:6 *28:27 0.00121162
48 *25:7 *28:25 0.00121162
49 *25:7 *28:27 0.00021953
50 *25:8 *28:25 0.00021953
51 *25:7 *28:25 0.00239396
52 *25:8 *28:24 0.00239396
53 *25:8 *28:25 0.00021953
54 *25:9 *28:24 0.00021953
55 *25:8 *28:24 0.00221056
56 *25:9 *28:23 0.00221056
57 *25:9 *28:24 0.00019539
58 *25:10 *28:23 0.00019539
59 *25:2 *28:23 0.0001945
60 *25:3 *28:22 0.0001945
61 *25:9 *28:23 0.0022064
62 *25:10 *28:22 0.0022064
63 *25:4 *28:23 7.32e-06
64 *25:5 *28:22 7.31971092e-06

*RES
1 *25:21 *86:CIN 0.219727
2 *25:20 *25:21 6.07997
3 *25:19 *25:20 0.160435
4 *25:18 *25:19 27.4283
5 *25:17 *25:18 7.93108
6 *25:16 *25:17 5.99976
7 *25:6 *25:16 0.160435
8 *25:7 *25:6 29.2114
9 *25:8 *25:7 57.1428566
10 *25:9 *25:8 57.1428566
11 *25:10 *25:9 57.1428566
12 *25:13 *25:10 5.99976
13 *25:13 *25:15 0.160435
14 *25:2 *25:15 5.99976
15 *25:3 *25:2 4.64042
16 *25:14 *25:3 5.99976
17 *25:12 *25:14 0.160435
18 *25:4 *25:12 5.99976
19 *25:5 *25:4 1.27999
20 *25:11 *58:I 0.779506
21 *25:11 *25:5 5.99976
*END

*D_NET *26 0.0941942

*CONN
*I *59:I I *C 1023.64 514.32 *L 0.00435 *D dl03d1
*I *85:CIN O *C 1048.785 1249.8101 *L 0 *D pc3d01

*CAP
1 *59:I 3.74484e-05
2 *85:CIN 0.00116827
3 *26:2 0.000956775
4 *26:3 0.000947874
5 *26:4 7.70454e-05
6 *26:5 0.000345016
7 *26:6 0.000335808
8 *26:7 6.26186e-05
9 *26:8 0.0100923
10 *26:9 0.02011622
11 *26:10 0.0193519
12 *26:11 0.0127518
13 *26:12 6.26186e-05
14 *26:13 0.00348024
15 *26:14 0.00146386
16 *26:15 0.000852411
17 *26:16 6.26186e-05
18 *26:17 0.000852411
19 *26:18 6.26186e-05
20 *26:19 0.00119651
21 *26:20 0.00146386
22 *26:2 *46:21 0.0005108
23 *26:3 *46:19 0.00051080001
24 *26:17 *25:2 8.898e-05
25 *26:15 *25:3 8.898e-05
26 *26:6 *25:2 7.49e-05
27 *26:5 *25:3 7.49e-05
28 *26:2 *25:2 3.645e-05
29 *26:3 *25:3 3.645e-05
30 *26:13 *25:6 0.00097013
31 *26:11 *25:7 0.00097013
32 *26:11 *25:6 0.00010977
33 *26:10 *25:7 0.00010977
34 *26:11 *25:7 0.00250373
35 *26:10 *25:8 0.00250373
36 *26:10 *25:7 0.00010977
37 *26:9 *25:8 0.00010977
38 *26:10 *25:8 0.00231353
39 *26:9 *25:9 0.00231353
40 *26:9 *25:8 9.978e-05
41 *26:8 *25:9 9.978e-05
42 *26:17 *25:9 0.00010417
43 *26:15 *25:10 0.00010417
44 *26:9 *25:9 0.00230498
45 *26:8 *25:10 0.00230498005

*RES
1 *26:19 *85:CIN 5.9797
2 *26:20 *26:19 5.99976
3 *26:14 *26:20 7.2004
4 *26:13 *26:14 5.99976
5 *26:11 *26:13 21.2115
6 *26:10 *26:11 57.1428566
7 *26:9 *26:10 57.1428566
8 *26:8 *26:9 57.1428566
9 *26:12 *26:8 5.99976
10 *26:12 *26:18 0.160435
11 *26:17 *26:18 5.99976
12 *26:15 *26:17 4.64042
13 *26:16 *26:15 5.99976
14 *26:7 *26:16 0.160435
15 *26:6 *26:7 5.99976
16 *26:5 *26:6 1.76043
17 *26:2 *26:5 0.160435
18 *26:3 *26:2 5.11998
19 *26:4 *59:I 0.194441
20 *26:4 *26:3 5.99976
*END

*D_NET *27 0.162046

*CONN
*I *57:I I *C 1017.48 486.32 *L 0.00435 *D dl03d1
*I *84:CIN O *C 457.345 1249.8101 *L 0 *D pc3d01

*CAP
1 *57:I 7.48639e-05
2 *84:CIN 0.000230421
3 *27:2 0.02010739
4 *27:3 0.0100646
5 *27:4 0.000243001
6 *27:5 0.000252205
7 *27:6 0.000292705
8 *27:7 0.000283808
9 *27:8 0.00605937
10 *27:9 0.0158708
11 *27:10 0.0191096
12 *27:11 0.00615541
13 *27:12 0.0154269
14 *27:13 0.0193707
15 *27:14 0.00917696
16 *27:15 0.000267853
17 *27:16 6.56593e-05
18 *27:17 0.00349927
19 *27:18 0.00011475
20 *27:19 6.01365e-05
21 *27:20 0.000956048
22 *27:21 6.01365e-05
23 *27:22 0.000956048
24 *27:23 6.01365e-05
25 *27:24 6.01365e-05
26 *27:25 0.00337808
27 *27:8 *28:19 0.00037695
28 *27:9 *28:12 0.00037695
29 *27:9 *28:12 0.00249537
30 *27:10 *28:11 0.00249537
31 *27:11 *28:27 0.00143115
32 *27:12 *28:25 0.00143115
33 *27:11 *28:25 0.00021953
34 *27:12 *28:24 0.00021953
35 *27:12 *28:25 0.00239396
36 *27:13 *28:24 0.00239396
37 *27:12 *28:24 0.00021953
38 *27:13 *28:23 0.00021953
39 *27:13 *28:24 0.00221056
40 *27:2 *28:23 0.00221056
41 *27:13 *28:23 0.00019539
42 *27:2 *28:22 0.00019539
43 *27:2 *28:2 0.0001196
44 *27:3 *28:3 0.0001196
45 *27:2 *28:23 0.0022064
46 *27:3 *28:22 0.0022064
47 *27:10 *28:11 0.00139712
48 *27:14 *28:10 0.00139712
49 *27:10 *28:10 0.00110475
50 *27:14 *28:14 0.00110474972
51 *27:2 *46:13 0.00036261
52 *27:3 *46:11 0.00036261
53 *27:4 *46:15 9.195e-05
54 *27:5 *46:14 9.195e-05
55 *27:6 *46:17 3.881e-05
56 *27:7 *46:16 3.881e-05
57 *27:6 *46:8 6.104e-05
58 *27:7 *46:7 6.10399758e-05

*RES
1 *27:18 *57:I 0.389753
2 *27:7 *27:18 5.99976
3 *27:7 *27:6 1.59999
4 *27:6 *27:5 0.160435
5 *27:5 *27:4 1.27999
6 *27:23 *27:4 5.99976
7 *27:19 *27:23 0.160435
8 *27:20 *27:19 5.99976
9 *27:20 *27:22 4.64042
10 *27:21 *27:22 5.99976
11 *27:21 *27:24 0.160435
12 *27:3 *27:24 5.99976
13 *27:12 *27:11 37.3718
14 *27:13 *27:12 57.1428566
15 *27:2 *27:13 57.1428566
16 *27:3 *27:2 57.1428566
17 *27:25 *27:11 5.99976
18 *27:17 *27:25 16.8004
19 *27:17 *27:8 0.639997
20 *27:9 *27:8 30.9719
21 *27:10 *27:9 57.1428566
22 *27:14 *27:10 54.766
23 *27:16 *27:14 5.99976
24 *27:15 *27:16 0.160435
25 *27:15 *84:CIN 1.17972
*END

*D_NET *28 0.180469

*CONN
*I *56:I I *C 1019.16 503.12 *L 0.00435 *D dl03d1
*I *83:CIN O *C 339.055 1249.8101 *L 0 *D pc3d01

*CAP
1 *56:I 3.73998e-05
2 *83:CIN 5.13929e-05
3 *28:2 0.000790993
4 *28:3 0.000790993
5 *28:4 0.000156214
6 *28:5 0.000147055
7 *28:6 0.000150108
8 *28:7 0.000196413
9 *28:8 0.000337616
10 *28:9 0.000300216
11 *28:10 0.0157206
12 *28:11 0.0150701
13 *28:12 0.0113395
14 *28:13 0.000257982
15 *28:14 0.0106864
16 *28:15 0.000281135
17 *28:16 0.000527922
18 *28:17 0.00867497
19 *28:18 0.000527922
20 *28:19 0.00140669
21 *28:20 7.70894e-05
22 *28:21 6.28418e-05
23 *28:22 0.00837323
24 *28:23 0.01667344
25 *28:24 0.0157631
26 *28:25 0.0115059
27 *28:26 6.28418e-05
28 *28:27 0.00409948
29 *28:28 7.30187e-05
30 *28:29 0.00868388
31 *28:30 6.28418e-05
32 *28:31 6.28418e-05
33 *28:19 *27:8 0.00037695
34 *28:12 *27:9 0.00037695
35 *28:12 *27:9 0.00249537
36 *28:11 *27:10 0.00249537
37 *28:27 *27:11 0.00143115
38 *28:25 *27:12 0.00143115
39 *28:25 *27:11 0.00021953
40 *28:24 *27:12 0.00021953
41 *28:25 *27:12 0.00239396
42 *28:24 *27:13 0.00239396
43 *28:24 *27:12 0.00021953
44 *28:23 *27:13 0.00021953
45 *28:24 *27:13 0.00221056
46 *28:23 *27:2 0.00221056
47 *28:23 *27:13 0.00019539
48 *28:22 *27:2 0.00019539
49 *28:2 *27:2 0.0001196
50 *28:3 *27:3 0.0001196
51 *28:23 *27:2 0.0022064
52 *28:22 *27:3 0.0022064
53 *28:11 *27:10 0.00139712
54 *28:10 *27:14 0.00139712
55 *28:10 *27:10 0.00110475
56 *28:14 *27:14 0.00110474972
57 *28:2 *46:21 5.295e-05
58 *28:3 *46:19 5.295e-05
59 *28:4 *46:15 3.052e-05
60 *28:5 *46:14 3.052e-05
61 *28:2 *46:13 7.49e-05
62 *28:3 *46:11 7.49e-05
63 *28:6 *46:13 2.461e-05
64 *28:7 *46:11 2.461e-05
65 *28:8 *46:13 0.0001526
66 *28:9 *46:11 0.0001526
67 *28:8 *46:11 0.00014957
68 *28:9 *46:9 0.000149569998
69 *28:2 *25:4 4.428e-05
70 *28:3 *25:5 4.428e-05
71 *28:27 *25:6 0.00121162
72 *28:25 *25:7 0.00121162
73 *28:27 *25:7 0.00021953
74 *28:25 *25:8 0.00021953
75 *28:25 *25:7 0.00239396
76 *28:24 *25:8 0.00239396
77 *28:25 *25:8 0.00021953
78 *28:24 *25:9 0.00021953
79 *28:24 *25:8 0.00221056
80 *28:23 *25:9 0.00221056
81 *28:24 *25:9 0.00019539
82 *28:23 *25:10 0.00019539
83 *28:23 *25:2 0.0001945
84 *28:22 *25:3 0.0001945
85 *28:23 *25:9 0.0022064
86 *28:22 *25:10 0.0022064
87 *28:23 *25:4 7.32e-06
88 *28:22 *25:5 7.31971092e-06

*RES
1 *28:20 *56:I 0.194441
2 *28:5 *28:20 5.99976
3 *28:5 *28:4 0.639997
4 *28:9 *28:4 0.160435
5 *28:9 *28:8 1.59999
6 *28:8 *28:7 0.319999
7 *28:7 *28:6 0.639997
8 *28:21 *28:6 5.99976
9 *28:21 *28:30 0.160435
10 *28:3 *28:30 5.99976
11 *28:3 *28:2 4.64042
12 *28:31 *28:2 5.99976
13 *28:26 *28:31 0.160435
14 *28:22 *28:26 5.99976
15 *28:25 *28:27 31.2919
16 *28:24 *28:25 57.1428566
17 *28:23 *28:24 57.1428566
18 *28:22 *28:23 57.1428566
19 *28:28 *28:27 5.99976
20 *28:28 *28:29 0.160435
21 *28:17 *28:29 40.1603
22 *28:16 *28:17 5.99976
23 *28:16 *28:18 2.40043
24 *28:19 *28:18 5.99976
25 *28:12 *28:19 8.25108
26 *28:11 *28:12 57.1428566
27 *28:10 *28:11 30.583
28 *28:14 *28:10 57.1428566
29 *28:14 *28:15 0.319999
30 *28:13 *28:15 1.03585
31 *28:13 *83:CIN 0.219727
*END

*D_NET *29 0.0431447

*CONN
*I *110:I I *C 1249.8101 688.835 *L 0.105 *D pc3o01
*I *64:Q O *C 1038.2 532.24 *L 0 *D decrq1

*CAP
1 *110:I 5.16203e-06
2 *64:Q 7.09779e-05
3 *29:2 0.00934494
4 *29:3 0.0093359
5 *29:4 0.01208192
6 *29:5 0.0113989
7 *29:6 9.99222e-05
8 *29:7 9.07043e-05
9 *29:8 0.000716416

*RES
1 *29:5 *110:I 0.025286
2 *29:4 *29:5 57.1428566
3 *29:8 *29:4 3.4511
4 *29:3 *64:Q 5.99976
5 *29:7 *29:8 5.99976
6 *29:3 *29:2 44.4798
7 *29:6 *29:7 0.319999
8 *29:6 *29:2 0.160435
*END

*D_NET *30 0.0303671

*CONN
*I *109:I I *C 1249.8101 570.545 *L 0.105 *D pc3o01
*I *68:Q O *C 1038.2 521.04 *L 0 *D decrq1

*CAP
1 *109:I 5.09388e-06
2 *68:Q 0.000117887
3 *30:2 0.0119224
4 *30:3 0.0113988
5 *30:4 0.000157546
6 *30:5 0.00306688
7 *30:6 0.00307597
8 *30:7 6.56746e-05
9 *30:8 0.00055687

*RES
1 *30:3 *109:I 0.025286
2 *30:2 *30:3 57.1428566
3 *30:8 *30:2 2.65154
4 *30:7 *30:8 5.99976
5 *30:6 *30:7 0.160435
6 *30:5 *30:6 14.0799
7 *30:4 *30:5 5.99976
8 *68:Q *30:4 0.584194
*END

*D_NET *31 0.030141

*CONN
*I *108:I I *C 1249.8101 452.255 *L 0.105 *D pc3o01
*I *66:Q O *C 1032.04 490.8 *L 0 *D decrq1

*CAP
1 *108:I 5.09597e-06
2 *66:Q 7.0966e-05
3 *31:2 0.00242945
4 *31:3 0.00243851
5 *31:4 0.01236904
6 *31:5 0.0113989
7 *31:6 6.56813e-05
8 *31:7 0.00100353
9 *31:2 *48:3 0.00017997
10 *31:3 *48:2 0.000179970003

*RES
1 *31:5 *108:I 0.025286
2 *31:4 *31:5 57.1428566
3 *31:7 *31:4 4.89153
4 *31:6 *31:7 5.99976
5 *31:2 *66:Q 5.99976
6 *31:3 *31:6 0.160435
7 *31:3 *31:2 11.0404
*END

*D_NET *32 0.0449936

*CONN
*I *107:I I *C 1249.8101 333.965 *L 0.105 *D pc3o01
*I *65:Q O *C 1033.72 509.84 *L 0 *D decrq1

*CAP
1 *107:I 5.05654e-06
2 *65:Q 7.09788e-05
3 *32:2 0.0101314
4 *32:3 0.0101406
5 *32:4 0.01227334
6 *32:5 0.0113989
7 *32:6 6.55477e-05
8 *32:7 0.000907929

*RES
1 *32:5 *107:I 0.025286
2 *32:4 *32:5 57.1428566
3 *32:7 *32:4 4.4111
4 *32:6 *32:7 5.99976
5 *32:2 *65:Q 5.99976
6 *32:3 *32:6 0.160435
7 *32:3 *32:2 49.7602
*END

*D_NET *33 0.102669

*CONN
*I *79:CP O *C 249.575 454.08 *L 0 *D pc3c01
*I *78:CP I *C 988.92 468.96 *L 0.00287 *D dfcrb1
*I *77:CP I *C 1018.04 453.28 *L 0.00287 *D dfcrb1
*I *71:CP I *C 1001.8 486.88 *L 0.00287 *D dfcrq1
*I *68:CP I *C 1027.5601 519.36 *L 0.00274 *D decrq1
*I *66:CP I *C 1021.4 492.48 *L 0.00274 *D decrq1
*I *65:CP I *C 1023.08 508.16 *L 0.00274 *D decrq1
*I *64:CP I *C 1027.5601 530.56 *L 0.00274 *D decrq1
*I *63:CP I *C 1024.76 468.96 *L 0.00287 *D dfcrq1

*CAP
1 *79:CP 5.66914e-05
2 *78:CP 3.75624e-05
3 *77:CP 7.09512e-05
4 *71:CP 3.75624e-05
5 *68:CP 7.09512e-05
6 *66:CP 7.09512e-05
7 *65:CP 7.09512e-05
8 *64:CP 7.09512e-05
9 *63:CP 3.75624e-05
10 *33:9 0.02279306
11 *33:10 0.0114277
12 *33:11 8.24286e-05
13 *33:12 8.24286e-05
14 *33:13 0.000128338
15 *33:14 0.000128338
16 *33:15 0.000729684
17 *33:16 0.00143711
18 *33:17 9.28625e-05
19 *33:18 9.28625e-05
20 *33:19 0.000417012
21 *33:20 0.00127886
22 *33:21 0.00185377
23 *33:22 0.000722032
24 *33:23 0.0227875
25 *33:24 0.0192918
26 *33:28 8.55588e-05
27 *33:29 0.00873117
28 *33:30 5.94738e-05
29 *33:31 6.01694e-05
30 *33:32 8.55588e-05
31 *33:33 5.94738e-05
32 *33:34 0.000924104
33 *33:35 6.01694e-05
34 *33:36 0.000924104
35 *33:37 5.66914e-05
36 *33:38 0.00100305
37 *33:39 0.00100305
38 *33:40 0.00133312
39 *33:41 5.94738e-05
40 *33:42 5.94738e-05
41 *33:43 5.66914e-05
42 *33:44 0.00220888
43 *33:45 0.00012799
44 *33:46 0.000890715
45 *33:47 5.66914e-05
46 *33:48 0.000396492
47 *33:49 8.55588e-05
48 *33:50 0.000187812
49 *33:51 0.000283457

*RES
1 *33:15 *64:CP 5.99976
2 *33:16 *68:CP 5.99976
3 *33:16 *33:15 3.19999
4 *33:32 *71:CP 0.194441
5 *33:22 *33:16 3.19999
6 *33:33 *33:32 5.99976
7 *33:47 *65:CP 5.99976
8 *33:27 *33:47 0.157819
9 *33:51 *33:22 5.99976
10 *33:30 *33:33 0.160435
11 *33:41 *66:CP 5.99976
12 *33:48 *33:47 5.99976
13 *33:48 *33:51 1.27999
14 *33:31 *33:30 5.99976
15 *33:28 *78:CP 0.194441
16 *33:41 *33:42 0.160435
17 *33:45 *33:48 0.480434
18 *33:49 *63:CP 0.194441
19 *33:31 *33:35 0.160435
20 *33:18 *33:28 5.99976
21 *33:43 *33:42 5.99976
22 *33:26 *33:43 0.157819
23 *33:46 *33:45 5.99976
24 *33:14 *33:49 5.99976
25 *33:36 *33:35 5.99976
26 *33:18 *33:17 0.480434
27 *33:10 *79:CP 5.99976
28 *33:44 *33:43 5.99976
29 *33:44 *33:46 4.32042
30 *33:14 *33:13 0.480434
31 *33:34 *33:36 4.47998
32 *33:29 *33:17 5.99976
33 *33:24 *33:29 39.6118
34 *33:23 *33:24 57.1428566
35 *33:9 *33:23 57.1428566
36 *33:10 *33:9 57.1428566
37 *33:40 *33:44 6.39997
38 *33:50 *33:13 5.99976
39 *33:21 *33:34 5.99976
40 *33:29 *33:21 3.83998
41 *33:19 *33:40 5.99976
42 *33:19 *33:50 0.800432
43 *33:21 *33:20 4.64042
44 *33:20 *33:19 0.959996
45 *33:12 *77:CP 5.99976
46 *33:39 *33:20 5.99976
47 *33:12 *33:11 0.160435
48 *33:38 *33:39 4.79998
49 *33:37 *33:11 5.99976
50 *33:37 *33:38 5.99976
51 *33:25 *33:37 0.111607
*END

*D_NET *34 0.0153069

*CONN
*I *80:CIN O *C 249.79 339.055 *L 0 *D pc3d01
*I *79:CCLK I *C 249.555 473.04 *L 0.18 *D pc3c01

*CAP
1 *80:CIN 7.0087e-05
2 *79:CCLK 6.80323e-05
3 *34:2 0.0074807
4 *34:3 0.00743892
5 *34:4 0.000108441
6 *34:5 0.000140745

*RES
1 *80:CIN *34:2 0.300266
2 *34:2 *34:3 37.9157143
3 *34:4 *34:3 6.00012
4 *34:4 *34:5 0.311259
5 *79:CCLK *34:5 0.319937
*END

*D_NET *35 0.0312947

*CONN
*I *98:I I *C 1043.6949 249.79 *L 0.105 *D pc3o01
*I *70:A I *C 1029.8 458.32 *L 0.00477 *D oai21d1
*I *63:Q O *C 1035.4 470.64 *L 0 *D dfcrq1

*CAP
1 *98:I 5.14117e-05
2 *70:A 7.09534e-05
3 *63:Q 7.09534e-05
4 *35:3 6.01989e-05
5 *35:4 0.00101132
6 *35:5 6.01989e-05
7 *35:6 0.00101132
8 *35:7 0.00859507
9 *35:8 0.0015855
10 *35:9 0.00859507
11 *35:10 6.01989e-05
12 *35:11 9.07574e-05
13 *35:12 6.01989e-05
14 *35:13 0.000884623
15 *35:14 9.07574e-05
16 *35:15 0.000884623
17 *35:16 0.00217438
18 *35:17 0.0022212
19 *35:18 6.16416e-05
20 *35:19 0.000396474
21 *35:20 0.000626384
22 *35:21 0.000396474
23 *35:22 0.000626384
24 *35:23 0.00160858

*RES
1 *35:22 *63:Q 5.99977
2 *35:20 *35:22 2.71993
3 *35:21 *35:20 5.99977
4 *35:19 *35:21 1.76
5 *35:18 *35:19 5.99977
6 *35:17 *70:A 5.99977
7 *35:17 *35:18 0.159878
8 *35:16 *35:17 10.7198
9 *35:15 *35:16 5.99977
10 *35:13 *35:15 4.67459
11 *35:14 *35:13 5.99977
12 *98:I *35:23 0.220083
13 *35:11 *35:14 0.319756
14 *35:8 *35:23 7.80994
15 *35:12 *35:11 5.99977
16 *35:7 *35:8 5.99977
17 *35:5 *35:12 0.159878
18 *35:7 *35:9 43.8400002
19 *35:6 *35:5 5.99977
20 *35:10 *35:9 5.99977
21 *35:4 *35:6 4.47993
22 *35:3 *35:10 0.159878
23 *35:3 *35:4 5.99977
*END

*D_NET *36 0.0914436

*CONN
*I *55:I I *C 994.52 452.72 *L 0.00435 *D dl03d1
*I *81:CIN O *C 450.815 249.79 *L 0 *D pc3d01

*CAP
1 *55:I 7.09445e-05
2 *81:CIN 5.14091e-05
3 *36:2 0.0159291
4 *36:3 0.01684547
5 *36:4 7.55713e-05
6 *36:5 6.14339e-05
7 *36:6 0.00353874
8 *36:7 0.000295088
9 *36:8 0.00352975
10 *36:9 0.000295088
11 *36:10 0.00599636
12 *36:11 0.0069302
13 *36:12 0.00691272
14 *36:13 0.0069302
15 *36:14 6.27191e-05
16 *36:15 0.000418984
17 *36:16 6.27191e-05
18 *36:17 0.000427981
19 *36:18 0.000785017
20 *36:19 6.27191e-05
21 *36:20 0.000785017
22 *36:21 6.27191e-05
23 *36:22 0.00130965
24 *36:23 0.00130065
25 *36:12 *37:2 0.00188267
26 *36:3 *37:3 0.00188267
27 *36:3 *37:3 0.00249537
28 *36:2 *37:4 0.00249537
29 *36:23 *37:5 0.00011708
30 *36:22 *37:6 0.00011708
31 *36:20 *37:5 0.0002118
32 *36:18 *37:6 0.0002118
33 *36:17 *37:5 0.00010977
34 *36:15 *37:6 0.00010977
35 *36:13 *37:5 0.0019388
36 *36:11 *37:6 0.0019388
37 *36:2 *37:4 0.00038113
38 *36:10 *37:7 0.00038113
39 *36:2 *37:7 0.00125094
40 *36:10 *37:8 0.00125094
41 *36:8 *37:7 0.00095752
42 *36:6 *37:8 0.00095752
43 *36:5 *37:7 6.59e-06
44 *36:4 *37:8 6.58985914e-06

*RES
1 *36:23 *55:I 5.99976
2 *36:22 *36:23 6.88041
3 *36:17 *36:22 0.160435
4 *36:15 *36:17 2.40043
5 *36:16 *36:15 5.99976
6 *36:16 *36:21 0.160435
7 *36:20 *36:21 5.99976
8 *36:18 *36:20 4.64042
9 *36:19 *36:18 5.99976
10 *36:14 *36:19 0.160435
11 *36:13 *36:14 5.99976
12 *36:11 *36:13 42.4002
13 *36:12 *36:11 5.99976
14 *36:3 *36:12 41.2118
15 *36:2 *36:3 57.1428566
16 *36:10 *36:2 35.7256
17 *36:9 *36:10 5.99976
18 *36:7 *36:9 1.27999
19 *36:8 *36:7 5.99976
20 *36:6 *36:8 20.9603
21 *36:5 *36:6 0.160435
22 *36:4 *36:5 0.143869
23 *81:CIN *36:4 0.219727
*END

*D_NET *37 0.106144

*CONN
*I *82:CIN O *C 332.525 249.79 *L 0 *D pc3d01
*I *73:C2 I *C 996.2 458.88 *L 0.00488 *D aoim211d1

*CAP
1 *82:CIN 5.12805e-05
2 *73:C2 7.0964e-05
3 *37:2 0.0070402
4 *37:3 0.01697308
5 *37:4 0.0113548
6 *37:5 0.00861772
7 *37:6 0.00861772
8 *37:7 0.0112193
9 *37:8 0.0099751
10 *37:9 0.000105669
11 *37:10 0.000105669
12 *37:11 0.000433813
13 *37:12 0.000433813
14 *37:13 0.000434072
15 *37:14 0.000420086
16 *37:15 0.00466316
17 *37:16 0.00477531
18 *37:17 6.00863e-05
19 *37:18 0.00101447
20 *37:19 0.00101447
21 *37:20 6.00863e-05
22 *37:2 *36:12 0.00188267
23 *37:3 *36:3 0.00188267
24 *37:3 *36:3 0.00249537
25 *37:4 *36:2 0.00249537
26 *37:5 *36:23 0.00011708
27 *37:6 *36:22 0.00011708
28 *37:5 *36:20 0.0002118
29 *37:6 *36:18 0.0002118
30 *37:5 *36:17 0.00010977
31 *37:6 *36:15 0.00010977
32 *37:5 *36:13 0.0019388
33 *37:6 *36:11 0.0019388
34 *37:4 *36:2 0.00038113
35 *37:7 *36:10 0.00038113
36 *37:7 *36:2 0.00125094
37 *37:8 *36:10 0.00125094
38 *37:7 *36:8 0.00095752
39 *37:8 *36:6 0.00095752
40 *37:7 *36:5 6.59e-06
41 *37:8 *36:4 6.58985914e-06

*RES
1 *37:11 *73:C2 5.99976
2 *37:12 *37:11 1.59999
3 *37:9 *37:12 5.99976
4 *37:10 *37:9 0.160435
5 *37:19 *37:10 5.99976
6 *37:18 *37:19 4.47998
7 *37:17 *37:18 5.99976
8 *37:17 *37:20 0.160435
9 *37:5 *37:20 5.99976
10 *37:6 *37:5 52.6402
11 *37:2 *37:6 5.99976
12 *37:3 *37:2 41.8518
13 *37:4 *37:3 57.1428566
14 *37:7 *37:4 8.34263
15 *37:8 *37:7 57.1428566
16 *37:16 *37:8 0.639997
17 *37:15 *37:16 23.2003
18 *37:14 *37:15 0.160435
19 *37:13 *37:14 1.91999
20 *82:CIN *37:13 0.219727
*END

*D_NET *38 0.000733443

*CONN
*I *61:I I *C 1012.44 480.72 *L 0.00435 *D dl03d1
*I *71:Q O *C 1012.44 485.2 *L 0 *D dfcrq1

*CAP
1 *61:I 7.09514e-05
2 *71:Q 7.09514e-05
3 *38:2 0.00029577
4 *38:3 0.00029577

*RES
1 *38:3 *71:Q 6
2 *38:2 *38:3 1.28
3 *61:I *38:2 6
*END

*D_NET *39 0.00897542

*CONN
*I *77:Q O *C 1006.84 453.84 *L 0 *D dfcrb1
*I *75:A2 I *C 1016.92 458.32 *L 0.00391 *D nd02d1
*I *73:C1 I *C 996.76 457.76 *L 0.00479 *D aoim211d1
*I *70:B2 I *C 1028.12 458.32 *L 0.0043 *D oai21d1
*I *69:C2 I *C 1012.44 470.08 *L 0.0046 *D oan211d1

*CAP
1 *77:Q 7.09505e-05
2 *75:A2 0.000180279
3 *73:C1 0.000376823
4 *70:B2 0.000417848
5 *69:C2 7.09505e-05
6 *39:5 0.000144975
7 *39:6 0.000303468
8 *39:7 5.28358e-05
9 *39:8 5.28358e-05
10 *39:9 0.000594727
11 *39:10 0.000660569
12 *39:11 8.98052e-05
13 *39:12 0.000825935
14 *39:13 0.00093256
15 *39:14 0.000125821
16 *39:15 0.000606381
17 *39:16 0.000619672
18 *39:17 0.000619672
19 *39:18 6.16299e-05
20 *39:19 6.16299e-05
21 *39:20 0.000416425
22 *39:21 7.30566e-05
23 *39:22 0.000222471
24 *39:23 7.30566e-05
25 *39:12 *40:13 0.00017164
26 *39:13 *40:8 0.00017164
27 *39:13 *40:13 1.69e-05
28 *39:14 *40:8 1.69e-05
29 *70:B2 *70:B1 0.00014064
30 *39:15 *40:14 0.00014064
31 *39:15 *70:B1 4.605e-05
32 *75:A2 *40:14 4.60500052e-05
33 *39:9 *49:4 0.00013388
34 *39:10 *49:2 0.00013388
35 *39:10 *49:4 1.378e-05
36 *39:11 *49:2 1.3779987e-05
37 *39:5 *43:5 0.00012548
38 *39:6 *43:3 0.00012548
39 *39:7 *43:5 1.215e-05
40 *39:8 *43:3 1.21499985e-05

*RES
1 *39:18 *69:C2 6
2 *39:19 *39:18 0.160034
3 *39:17 *39:19 6
4 *39:17 *39:16 2.24002
5 *75:A2 *39:15 1.16867
6 *39:15 *70:B2 2.72699
7 *39:9 *39:16 6
8 *39:22 *77:Q 6
9 *39:10 *39:15 6
10 *39:10 *39:9 3.20004
11 *39:6 *39:22 0.799988
12 *39:11 *39:10 0.319977
13 *39:6 *39:5 0.679962
14 *39:23 *39:11 0.160034
15 *39:21 *39:5 6
16 *39:12 *39:23 6
17 *39:21 *39:13 0.160034
18 *39:13 *39:12 4.48004
19 *39:14 *39:13 0.480011
20 *39:8 *39:14 6
21 *39:8 *39:7 0.160034
22 *39:20 *39:7 6
23 *73:C1 *39:20 1.94778
*END

*D_NET *40 0.00652334

*CONN
*I *78:Q O *C 1000.12 468.4 *L 0 *D dfcrb1
*I *73:A I *C 993.96 458.32 *L 0.00528 *D aoim211d1
*I *70:B1 I *C 1029.24 459.44 *L 0.00466 *D oai21d1

*CAP
1 *78:Q 7.09574e-05
2 *73:A 7.09574e-05
3 *70:B1 0.000722332
4 *40:4 5.65364e-05
5 *40:5 0.000128326
6 *40:6 0.000137407
7 *40:7 0.000194542
8 *40:8 0.00109006
9 *40:9 0.000436473
10 *40:10 0.000110412
11 *40:11 0.000436473
12 *40:12 8.24178e-05
13 *40:13 0.000886436
14 *40:14 0.000761936
15 *40:15 8.24178e-05
16 *40:8 *11:15 6.154e-05
17 *40:7 *11:16 6.154e-05
18 *40:6 *11:15 2.059e-05
19 *40:5 *11:16 2.059e-05
20 *40:11 *11:17 0.00017047
21 *40:9 *11:18 0.000170470007
22 *40:13 *39:12 0.00017164
23 *40:8 *39:13 0.00017164
24 *40:13 *39:13 1.69e-05
25 *40:8 *39:14 1.69e-05
26 *70:B1 *70:B2 0.00014064
27 *40:14 *39:15 0.00014064
28 *70:B1 *39:15 4.605e-05
29 *40:14 *75:A2 4.60500052e-05

*RES
1 *40:14 *70:B1 4.09039
2 *40:15 *40:14 6
3 *40:11 *78:Q 6
4 *40:12 *40:15 0.160034
5 *40:9 *40:11 2.39996
6 *40:13 *40:12 6
7 *40:10 *40:9 6
8 *40:8 *40:13 4.95996
9 *40:8 *40:10 0.319977
10 *40:7 *40:8 1.11996
11 *40:6 *40:7 0.160034
12 *40:5 *40:6 0.640045
13 *40:4 *73:A 6
14 *40:4 *40:5 6
15 *40:3 *40:4 0.15802
*END

*D_NET *41 0.0222675

*CONN
*I *78:CDN I *C 993.96 468.96 *L 0.00865 *D dfcrb1
*I *77:CDN I *C 1013 453.28 *L 0.00865 *D dfcrb1
*I *76:ZN O *C 993.96 453.84 *L 0 *D inv0d1
*I *71:CDN I *C 1006.84 486.88 *L 0.0086 *D dfcrq1
*I *68:CDN I *C 1036.52 519.36 *L 0.00677 *D decrq1
*I *66:CDN I *C 1030.36 492.48 *L 0.00677 *D decrq1
*I *65:CDN I *C 1032.04 508.16 *L 0.00677 *D decrq1
*I *64:CDN I *C 1036.52 530.56 *L 0.00677 *D decrq1
*I *63:CDN I *C 1029.8 468.96 *L 0.0086 *D dfcrq1

*CAP
1 *78:CDN 7.09605e-05
2 *77:CDN 7.09605e-05
3 *76:ZN 7.09605e-05
4 *71:CDN 7.09605e-05
5 *68:CDN 7.09605e-05
6 *66:CDN 7.09605e-05
7 *65:CDN 7.09605e-05
8 *64:CDN 7.09605e-05
9 *63:CDN 7.09605e-05
10 *41:9 0.000837857
11 *41:10 0.000837857
12 *41:11 0.000392877
13 *41:12 0.000246569
14 *41:13 0.000599726
15 *41:14 0.000590655
16 *41:15 0.00112653
17 *41:16 0.00112653
18 *41:17 0.0010477
19 *41:18 0.000292997
20 *41:19 7.88075e-05
21 *41:20 0.000125573
22 *41:21 0.000108065
23 *41:22 0.0013824
24 *41:23 0.000816024
25 *41:24 0.0013824
26 *41:25 9.07889e-05
27 *41:26 0.000140339
28 *41:27 0.00127505
29 *41:28 5.95275e-05
30 *41:29 5.95275e-05
31 *41:30 0.000453185
32 *41:31 0.000820159
33 *41:32 0.00127505
34 *41:33 0.00112687
35 *41:34 0.000834629
36 *41:35 0.000330354
37 *41:36 0.000888735
38 *41:37 0.000927591
39 *41:38 0.00033008
40 *41:39 0.000732956
41 *41:40 0.0006883
42 *41:13 *48:3 0.00030157
43 *41:14 *48:2 0.000301570009

*RES
1 *41:40 *64:CDN 5.99996
2 *41:39 *68:CDN 5.99996
3 *41:39 *41:40 3.19998
4 *41:38 *41:39 0.159961
5 *41:37 *41:38 1.27997
6 *41:36 *65:CDN 5.99996
7 *41:36 *41:37 3.04002
8 *41:14 *63:CDN 5.99996
9 *41:35 *41:36 0.959956
10 *41:14 *41:13 2.87996
11 *41:34 *41:35 0.479978
12 *41:13 *41:30 0.159961
13 *41:33 *66:CDN 5.99996
14 *41:33 *41:34 3.52
15 *41:30 *41:31 1.92001
16 *41:31 *41:33 1.92001
17 *41:32 *41:31 5.99996
18 *41:27 *41:32 6.23999977
19 *41:26 *41:27 5.99996
20 *41:25 *71:CDN 5.99996
21 *41:11 *41:26 0.479978
22 *41:11 *41:25 0.320017
23 *41:12 *41:11 0.959956
24 *41:24 *41:12 5.99996
25 *41:22 *41:24 4.47995
26 *41:23 *41:22 5.99996
27 *41:17 *78:CDN 5.99996
28 *41:17 *41:23 3.84001
29 *41:18 *41:17 0.959956
30 *41:29 *77:CDN 5.99996
31 *41:18 *41:9 0.320017
32 *41:28 *41:29 0.159961
33 *41:10 *41:9 3.19998
34 *41:15 *41:28 5.99996
35 *41:21 *41:10 0.320017
36 *41:16 *41:15 5.44
37 *41:20 *41:21 0.159961
38 *41:20 *76:ZN 5.99996
39 *41:19 *41:16 5.99996
40 *41:19 *41:20 0.320017
*END

*D_NET *42 0.00060008

*CONN
*I *62:I I *C 1005.72 469.52 *L 0.00435 *D dl03d1
*I *78:QN O *C 1001.24 468.4 *L 0 *D dfcrb1

*CAP
1 *62:I 0.00030004
2 *78:QN 0.00030004

*RES
1 *78:QN *62:I 1.55826
*END

*D_NET *43 0.0014389

*CONN
*I *60:I I *C 1006.28 458.32 *L 0.00435 *D dl03d1
*I *77:QN O *C 1005.72 453.84 *L 0 *D dfcrb1

*CAP
1 *60:I 0.000187542
2 *77:QN 0.000157201
3 *43:2 0.000196799
4 *43:3 0.000197479
5 *43:4 0.00022714
6 *43:5 0.000197479
7 *43:5 *39:5 0.00012548
8 *43:3 *39:6 0.00012548
9 *43:5 *39:7 1.215e-05
10 *43:3 *39:8 1.21499985e-05

*RES
1 *43:4 *60:I 0.973938
2 *43:5 *43:4 6
3 *43:3 *43:5 1.28
4 *43:2 *43:3 6
5 *43:2 *77:QN 0.779114
*END

*D_NET *44 0.00240062

*CONN
*I *75:ZN O *C 1015.24 457.2 *L 0 *D nd02d1
*I *69:B I *C 1013 469.52 *L 0.0046 *D oan211d1

*CAP
1 *75:ZN 7.09532e-05
2 *69:B 7.09532e-05
3 *44:2 0.00022247
4 *44:3 0.000249655
5 *44:4 0.000296086
6 *44:5 9.36801e-05
7 *44:6 0.000243093
8 *44:7 0.00042157
9 *44:8 0.000384221
10 *44:8 *10:3 0.00015007
11 *44:7 *10:4 0.00015007
12 *44:4 *10:5 2.39e-05
13 *44:3 *10:6 2.38999962e-05

*RES
1 *44:3 *75:ZN 6
2 *44:3 *44:4 1.11996
3 *44:4 *44:7 0.319977
4 *44:7 *44:8 2.07999
5 *44:5 *44:8 0.160034
6 *44:5 *44:6 0.319977
7 *44:2 *44:6 0.799988
8 *69:B *44:2 6
*END

*D_NET *45 0.00128224

*CONN
*I *54:I I *C 991.16 463.92 *L 0.00435 *D dl03d1
*I *73:ZN O *C 993.4 458.88 *L 0 *D aoim211d1

*CAP
1 *54:I 7.09549e-05
2 *73:ZN 7.09549e-05
3 *45:2 0.000249282
4 *45:3 9.07921e-05
5 *45:4 7.30617e-05
6 *45:5 0.000288896
7 *45:6 0.00043831

*RES
1 *45:4 *73:ZN 6
2 *45:4 *45:5 0.160034
3 *45:3 *54:I 6
4 *45:5 *45:6 0.960022
5 *45:2 *45:3 0.319977
6 *45:2 *45:6 0.799988
*END

*D_NET *46 0.0123421

*CONN
*I *74:ZN O *C 1016.92 474.56 *L 0 *D nd03d1
*I *68:ENN I *C 1023.08 521.04 *L 0.00326 *D decrq1
*I *67:A1 I *C 1029.24 475.12 *L 0.00428 *D nd02d1
*I *66:ENN I *C 1016.92 490.8 *L 0.00326 *D decrq1
*I *65:ENN I *C 1018.6 509.84 *L 0.00326 *D decrq1
*I *64:ENN I *C 1023.08 532.24 *L 0.00326 *D decrq1

*CAP
1 *74:ZN 0.000720307
2 *68:ENN 0.000431195
3 *67:A1 7.09563e-05
4 *66:ENN 7.09563e-05
5 *65:ENN 8.38266e-05
6 *64:ENN 3.95604e-05
7 *46:6 0.000720307
8 *46:7 0.000132869
9 *46:8 8.64488e-05
10 *46:9 0.000215477
11 *46:10 0.000123415
12 *46:11 0.000673788
13 *46:12 0.000429041
14 *46:13 0.000482265
15 *46:14 0.00092891
16 *46:15 0.000854212
17 *46:16 0.000821668
18 *46:17 0.000830739
19 *46:18 8.95955e-05
20 *46:19 0.000483739
21 *46:20 8.73985e-05
22 *46:21 0.000483739
23 *46:22 0.00010805
24 *46:23 6.16297e-05
25 *46:24 8.24233e-05
26 *46:25 0.000128844
27 *46:21 *26:2 0.0005108
28 *46:19 *26:3 0.00051080001
29 *46:21 *28:2 5.295e-05
30 *46:19 *28:3 5.295e-05
31 *46:15 *28:4 3.052e-05
32 *46:14 *28:5 3.052e-05
33 *46:13 *28:2 7.49e-05
34 *46:11 *28:3 7.49e-05
35 *46:13 *28:6 2.461e-05
36 *46:11 *28:7 2.461e-05
37 *46:13 *28:8 0.0001526
38 *46:11 *28:9 0.0001526
39 *46:11 *28:8 0.00014957
40 *46:9 *28:9 0.000149569998
41 *46:13 *27:2 0.00036261
42 *46:11 *27:3 0.00036261
43 *46:15 *27:4 9.195e-05
44 *46:14 *27:5 9.195e-05
45 *46:17 *27:6 3.881e-05
46 *46:16 *27:7 3.881e-05
47 *46:8 *27:6 6.104e-05
48 *46:7 *27:7 6.10399758e-05

*RES
1 *46:20 *64:ENN 0.194824
2 *46:21 *46:20 6
3 *46:19 *46:21 2.72003
4 *46:18 *46:19 6
5 *46:24 *67:A1 6
6 *46:18 *68:ENN 0.194824
7 *46:24 *46:25 0.160034
8 *46:22 *46:25 0.319977
9 *46:12 *68:ENN 1.94778
10 *46:22 *46:23 0.160034
11 *46:10 *65:ENN 0.389557
12 *46:13 *46:12 6
13 *46:6 *46:23 6
14 *46:11 *46:10 6
15 *46:11 *46:13 3.20004
16 *74:ZN *46:6 3.31128
17 *46:9 *46:11 1.28
18 *46:16 *74:ZN 6
19 *46:9 *46:15 0.160034
20 *46:16 *46:17 3.84
21 *46:8 *66:ENN 6
22 *46:14 *46:15 4.00003
23 *46:14 *46:17 0.160034
24 *46:7 *46:8 0.319977
25 *46:7 *46:14 0.319977
*END

*D_NET *47 0.00163807

*CONN
*I *72:ZN O *C 1005.72 476.24 *L 0 *D nr03d1
*I *71:D I *C 1004.04 486.32 *L 0.00251 *D dfcrq1

*CAP
1 *72:ZN 0.000121415
2 *71:D 7.09482e-05
3 *47:2 0.000163079
4 *47:3 8.9509e-05
5 *47:4 0.00059656
6 *47:5 0.00059656

*RES
1 *47:5 *71:D 6
2 *47:4 *47:5 2.72003
3 *47:3 *47:4 6
4 *47:2 *47:3 0.194824
5 *47:2 *72:ZN 0.584381
*END

*D_NET *48 0.00254116

*CONN
*I *70:ZN O *C 1030.36 457.2 *L 0 *D oai21d1
*I *67:A2 I *C 1030.36 475.12 *L 0.00391 *D nd02d1

*CAP
1 *70:ZN 7.09488e-05
2 *67:A2 7.09488e-05
3 *48:2 0.00071809
4 *48:3 0.00071809
5 *48:3 *31:2 0.00017997
6 *48:2 *31:3 0.000179970003
7 *48:3 *41:13 0.00030157
8 *48:2 *41:14 0.000301570009

*RES
1 *48:3 *67:A2 6
2 *48:2 *48:3 4.32001
3 *70:ZN *48:2 6
*END

*D_NET *49 0.00418662

*CONN
*I *53:I I *C 1018.6 452.72 *L 0.00435 *D dl03d1
*I *69:ZN O *C 1013.56 470.64 *L 0 *D oan211d1

*CAP
1 *53:I 7.09491e-05
2 *69:ZN 0.000371843
3 *49:2 0.00079522
4 *49:3 0.000411437
5 *49:4 0.00079522
6 *49:4 *39:9 0.00013388
7 *49:2 *39:10 0.00013388
8 *49:4 *39:10 1.378e-05
9 *49:2 *39:11 1.3779987e-05
10 *49:4 *12:7 0.00012151
11 *49:2 *12:8 0.00012151
12 *49:4 *12:8 0.00060181
13 *49:2 *12:9 0.000601810008

*RES
1 *49:2 *53:I 6
2 *49:2 *49:4 5.03998
3 *49:3 *49:4 6
4 *69:ZN *49:3 1.75305
*END

*D_NET *50 0.00195934

*CONN
*I *52:I I *C 1027 463.92 *L 0.00435 *D dl03d1
*I *67:ZN O *C 1028.6801 476.24 *L 0 *D nd02d1

*CAP
1 *52:I 3.75198e-05
2 *67:ZN 0.000131983
3 *50:2 7.71207e-05
4 *50:3 0.00077056
5 *50:4 0.000171584
6 *50:5 0.00077056

*RES
1 *50:4 *67:ZN 0.779114
2 *50:5 *50:4 6
3 *50:3 *50:5 3.04001
4 *50:2 *52:I 0.194824
5 *50:2 *50:3 6
*END

